param n := 2;

param m := 2;

param K := 20;

param a :=
1 	 0.903402
2 	 0.137475
;
 param A :=
[1, *, *]:  1	2	:=
1	-0.721447	-0.204646	
2	0.614783	-0.669292	

[2, *, *]:  1	2	:=
1	0.855017	0.501624	
2	-0.304468	0.451996	
;